p cnf 117 425
-1 -3 -4 0
1 3 -4 0
-1 3 4 0
1 -3 4 0
-5 -4 0
-5 3 0
4 -3 5 0
-6 -2 0
-6 5 0
2 -5 6 0
7 1 0
7 -6 0
-1 6 -7 0
10 8 0
10 9 0
-8 -9 -10 0
-7 -10 -11 0
7 10 -11 0
-7 10 11 0
7 -10 11 0
-11 -8 -12 0
11 8 -12 0
-11 8 12 0
11 -8 12 0
-13 -12 0
-13 8 0
12 -8 13 0
-13 2 -14 0
13 -2 -14 0
-13 -2 14 0
13 2 14 0
15 7 0
15 2 0
-7 -2 -15 0
-16 -3 -17 0
16 3 -17 0
-16 3 17 0
16 -3 17 0
19 -16 0
19 18 0
16 -18 -19 0
16 20 -21 0
-16 -20 -21 0
16 -20 21 0
-16 20 21 0
-22 19 0
-22 -21 0
-19 21 22 0
-8 22 -23 0
8 -22 -23 0
-8 -22 23 0
8 22 23 0
-17 23 -24 0
17 -23 -24 0
-17 -23 24 0
17 23 24 0
-25 -1 0
-25 22 0
1 -22 25 0
-24 -25 -26 0
24 25 -26 0
-24 25 26 0
24 -25 26 0
-27 13 0
-27 26 0
-13 -26 27 0
15 -27 -28 0
-15 27 -28 0
15 27 28 0
-15 -27 28 0
14 28 -29 0
-14 -28 -29 0
14 -28 29 0
-14 28 29 0
-3 10 -30 0
3 -10 -30 0
-3 -10 30 0
3 10 30 0
-33 -30 0
-33 31 0
30 -31 33 0
32 -33 -34 0
-32 33 -34 0
32 33 34 0
-32 -33 34 0
-35 31 0
-35 34 0
-31 -34 35 0
36 30 0
36 -35 0
-30 35 -36 0
37 -16 0
37 5 0
16 -5 -37 0
36 -37 -38 0
-36 37 -38 0
36 37 38 0
-36 -37 38 0
29 38 -39 0
-29 -38 -39 0
29 -38 39 0
-29 38 39 0
-21 1 -40 0
21 -1 -40 0
-21 -1 40 0
21 1 40 0
10 41 -42 0
-10 -41 -42 0
10 -41 42 0
-10 41 42 0
43 32 0
43 -42 0
-32 42 -43 0
43 2 -44 0
-43 -2 -44 0
43 -2 44 0
-43 2 44 0
46 -45 0
46 30 0
45 -30 -46 0
47 46 0
47 21 0
-46 -21 -47 0
44 47 -48 0
-44 -47 -48 0
44 -47 48 0
-44 47 48 0
49 -42 0
49 16 0
42 -16 -49 0
50 -35 0
50 -19 0
35 19 -50 0
-50 24 -51 0
50 -24 -51 0
-50 -24 51 0
50 24 51 0
49 51 -52 0
-49 -51 -52 0
49 -51 52 0
-49 51 52 0
48 -52 -53 0
-48 52 -53 0
48 52 53 0
-48 -52 53 0
54 40 0
54 -53 0
-40 53 -54 0
55 10 0
55 -42 0
-10 42 -55 0
56 -54 0
56 -55 0
54 55 -56 0
57 -39 0
57 -56 0
39 56 -57 0
32 -16 -58 0
-32 16 -58 0
32 16 58 0
-32 -16 58 0
59 9 0
59 58 0
-9 -58 -59 0
-60 -22 0
-60 59 0
22 -59 60 0
-13 -60 -61 0
13 60 -61 0
-13 60 61 0
13 -60 61 0
-7 -17 -62 0
7 17 -62 0
-7 17 62 0
7 -17 62 0
63 62 0
63 11 0
-62 -11 -63 0
63 22 -64 0
-63 -22 -64 0
63 -22 64 0
-63 22 64 0
65 61 0
65 -64 0
-61 64 -65 0
-22 -66 -67 0
22 66 -67 0
-22 66 67 0
22 -66 67 0
68 -25 0
68 -60 0
25 60 -68 0
-69 67 0
-69 -68 0
-67 68 69 0
58 -70 -71 0
-58 70 -71 0
58 70 71 0
-58 -70 71 0
72 -42 0
72 -6 0
42 6 -72 0
-73 -3 0
-73 -72 0
3 72 73 0
74 71 0
74 -73 0
-71 73 -74 0
-69 74 -75 0
69 -74 -75 0
-69 -74 75 0
69 74 75 0
76 -17 0
76 42 0
17 -42 -76 0
-77 -22 0
-77 7 0
22 -7 77 0
-11 77 -78 0
11 -77 -78 0
-11 -77 78 0
11 77 78 0
76 78 -79 0
-76 -78 -79 0
76 -78 79 0
-76 78 79 0
75 79 -80 0
-75 -79 -80 0
75 -79 80 0
-75 79 80 0
35 -2 -81 0
-35 2 -81 0
35 2 81 0
-35 -2 81 0
82 11 0
82 81 0
-11 -81 -82 0
80 -82 -83 0
-80 82 -83 0
80 82 83 0
-80 -82 83 0
84 65 0
84 83 0
-65 -83 -84 0
85 11 0
85 -35 0
-11 35 -85 0
-86 22 0
-86 59 0
-22 -59 86 0
-87 -17 0
-87 86 0
17 -86 87 0
-88 85 0
-88 -87 0
-85 87 88 0
-9 16 -89 0
9 -16 -89 0
-9 -16 89 0
9 16 89 0
90 45 0
90 -31 0
-45 31 -90 0
89 90 -91 0
-89 -90 -91 0
89 -90 91 0
-89 90 91 0
92 -88 0
92 -91 0
88 91 -92 0
-93 1 0
-93 23 0
-1 -23 93 0
94 -92 0
94 -93 0
92 93 -94 0
7 59 -95 0
-7 -59 -95 0
7 -59 95 0
-7 59 95 0
-96 81 0
-96 -95 0
-81 95 96 0
-4 -16 -97 0
4 16 -97 0
-4 16 97 0
4 -16 97 0
98 97 0
98 -11 0
-97 11 -98 0
-99 96 0
-99 -98 0
-96 98 99 0
-100 -94 0
-100 -99 0
94 99 100 0
-84 100 -101 0
84 -100 -101 0
-84 -100 101 0
84 100 101 0
102 -57 0
102 101 0
57 -101 -102 0
103 5 0
103 -8 0
-5 8 -103 0
-104 -16 0
-104 -103 0
16 103 104 0
8 33 -105 0
-8 -33 -105 0
8 -33 105 0
-8 33 105 0
-106 -104 0
-106 105 0
104 -105 106 0
-20 13 -107 0
20 -13 -107 0
-20 -13 107 0
20 13 107 0
-108 -18 0
-108 5 0
18 -5 108 0
109 7 0
109 -19 0
-7 19 -109 0
108 109 -110 0
-108 -109 -110 0
108 -109 110 0
-108 109 110 0
-111 -107 0
-111 -110 0
107 110 111 0
-112 50 0
-112 -32 0
-50 32 112 0
31 -59 -113 0
-31 59 -113 0
31 59 113 0
-31 -59 113 0
-112 -113 -114 0
112 113 -114 0
-112 113 114 0
112 -113 114 0
115 -111 0
115 -114 0
111 114 -115 0
-116 106 0
-116 -115 0
-106 115 116 0
117 102 0
117 116 0
-102 -116 -117 0
91 -107 0
-56 90 -33 0
75 96 -61 -18 -3 0
63 -78 -1 -96 0
-50 -115 6 0
21 -47 72 0
5 45 -93 25 -91 0
-9 19 57 0
-62 80 0
17 -44 -68 -40 -106 0
-35 -41 62 0
-75 42 16 -84 -53 44 0
82 -99 45 0
-11 -101 5 -17 84 54 0
-104 -111 -112 -109 -58 79 0
89 77 -26 0
61 -42 -30 76 0
4 -70 0
60 53 -87 0
-101 -44 -52 -69 66 -89 0
-96 37 89 -103 35 -31 0
39 -12 -38 110 -28 0
84 41 27 0
19 -46 -104 -37 62 -71 0
-58 -6 35 -45 -68 0
79 76 56 0
-22 19 55 0
5 -62 97 0
10 23 -99 -106 0
-62 0
-87 114 0
37 -32 -80 99 -19 0
-102 30 14 72 61 0
-38 24 0
81 -17 57 0
-78 -52 0
32 45 -7 19 0
-14 -82 -101 0
-14 76 67 44 108 57 0
-115 -60 -79 -20 59 0
95 -12 100 -44 0
-89 103 54 97 22 -102 0
-13 -65 0
-100 -104 -102 0
82 83 -15 0
-67 -64 0
-64 58 0
84 36 31 0
-4 -19 0
-34 117 -67 -112 -21 0
-55 -73 -78 -66 -15 -31 0
68 56 -114 102 0
-13 114 20 -32 117 83 0
-61 -116 0
-105 -71 -112 86 64 13 0
-46 5 -107 100 -58 0
72 8 24 -99 0
-53 43 44 112 0
-61 67 108 -14 -115 -44 0
-13 -22 -78 -80 0
-84 -103 0
-92 50 29 0
-98 -76 -75 0
69 -84 101 0
-31 44 -36 -62 -40 0
-15 -38 62 -24 0
10 -31 0
90 27 -86 0
82 75 -18 -96 -16 -76 0
56 -36 106 0
49 61 -51 108 -84 0
117 0
